10
5
593
87 72 66 60 95
48 54 39 35 5
97 46 21 20 55
59 34 37 19 46
28 24 73 25 23
45 78 83 28 5
53 37 12 71 29
38 55 87 33 12
48 40 49 83 7
90 23 65 17 27
2 1 5 3 4
5 4 1 3 2
2 4 3 1 5
1 4 5 2 3
5 3 4 2 1
4 1 5 2 3
1 4 2 5 3
5 3 4 2 1
3 4 2 1 5
3 4 1 5 2
